(set-info :smt-lib-version 2.6)
(set-logic UF)
(set-info :source |Benchmarks from the paper: "Extending Sledgehammer with SMT Solvers" by Jasmin Blanchette, Sascha Bohme, and Lawrence C. Paulson, CADE 2011.  Translated to SMT2 by Andrew Reynolds and Morgan Deters.|)
(set-info :category "industrial")
(set-info :status unknown)
(declare-sort S1 0)
(declare-sort S2 0)
(declare-sort S3 0)
(declare-sort S4 0)
(declare-sort S5 0)
(declare-sort S6 0)
(declare-sort S7 0)
(declare-sort S8 0)
(declare-sort S9 0)
(declare-sort S10 0)
(declare-sort S11 0)
(declare-sort S12 0)
(declare-sort S13 0)
(declare-sort S14 0)
(declare-sort S15 0)
(declare-sort S16 0)
(declare-sort S17 0)
(declare-sort S18 0)
(declare-sort S19 0)
(declare-sort S20 0)
(declare-sort S21 0)
(declare-sort S22 0)
(declare-sort S23 0)
(declare-sort S24 0)
(declare-sort S25 0)
(declare-sort S26 0)
(declare-sort S27 0)
(declare-sort S28 0)
(declare-sort S29 0)
(declare-sort S30 0)
(declare-sort S31 0)
(declare-sort S32 0)
(declare-sort S33 0)
(declare-sort S34 0)
(declare-sort S35 0)
(declare-sort S36 0)
(declare-sort S37 0)
(declare-sort S38 0)
(declare-sort S39 0)
(declare-sort S40 0)
(declare-sort S41 0)
(declare-sort S42 0)
(declare-sort S43 0)
(declare-sort S44 0)
(declare-sort S45 0)
(declare-sort S46 0)
(declare-sort S47 0)
(declare-sort S48 0)
(declare-sort S49 0)
(declare-sort S50 0)
(declare-sort S51 0)
(declare-sort S52 0)
(declare-sort S53 0)
(declare-sort S54 0)
(declare-sort S55 0)
(declare-sort S56 0)
(declare-sort S57 0)
(declare-sort S58 0)
(declare-sort S59 0)
(declare-sort S60 0)
(declare-sort S61 0)
(declare-sort S62 0)
(declare-fun f1 () S1)
(declare-fun f2 () S1)
(declare-fun f3 (S3 S2) S1)
(declare-fun f4 () S3)
(declare-fun f5 (S4 S3) S1)
(declare-fun f6 (S5 S2) S4)
(declare-fun f7 () S5)
(declare-fun f8 (S6 S7) S3)
(declare-fun f9 () S6)
(declare-fun f10 () S7)
(declare-fun f11 (S8 S9) S3)
(declare-fun f12 (S10 S9) S8)
(declare-fun f13 (S11 S12) S10)
(declare-fun f14 () S11)
(declare-fun f15 () S12)
(declare-fun f16 () S9)
(declare-fun f17 (S12 S13) S14)
(declare-fun f18 (S15 S12) S14)
(declare-fun f19 (S16 S1) S15)
(declare-fun f20 () S16)
(declare-fun f21 () S12)
(declare-fun f22 (S14 S17) S1)
(declare-fun f23 (S18 S13) S1)
(declare-fun f24 (S19 S13) S18)
(declare-fun f25 () S19)
(declare-fun f26 () S13)
(declare-fun f27 (S20 S2) S12)
(declare-fun f28 () S20)
(declare-fun f29 (S21 S18) S1)
(declare-fun f30 (S22 S13) S21)
(declare-fun f31 () S22)
(declare-fun f32 (S23 S2) S13)
(declare-fun f33 () S23)
(declare-fun f34 (S24 S18) S18)
(declare-fun f35 (S25 S13) S24)
(declare-fun f36 () S25)
(declare-fun f37 () S13)
(declare-fun f38 (S26 S13) S13)
(declare-fun f39 () S26)
(declare-fun f40 () S13)
(declare-fun f41 () S18)
(declare-fun f42 (S9 S13) S12)
(declare-fun f43 (S27 S2) S9)
(declare-fun f44 () S27)
(declare-fun f45 () S1)
(declare-fun f46 () S2)
(declare-fun f47 (S28 S17) S2)
(declare-fun f48 (S29 S13) S28)
(declare-fun f49 () S29)
(declare-fun f50 (S30 S17) S17)
(declare-fun f51 (S31 S13) S30)
(declare-fun f52 () S31)
(declare-fun f53 (S32 S3) S3)
(declare-fun f54 () S32)
(declare-fun f55 (S35 S33) S33)
(declare-fun f56 (S36 S34) S35)
(declare-fun f57 () S36)
(declare-fun f58 (S38 S37) S37)
(declare-fun f59 (S39 S33) S38)
(declare-fun f60 () S39)
(declare-fun f61 (S40 S7) S7)
(declare-fun f62 (S41 S2) S40)
(declare-fun f63 () S41)
(declare-fun f64 () S26)
(declare-fun f65 () S18)
(declare-fun f66 (S42 S43) S1)
(declare-fun f67 () S42)
(declare-fun f68 () S43)
(declare-fun f69 () S43)
(declare-fun f70 (S44 S17) S18)
(declare-fun f71 () S44)
(declare-fun f72 (S45 S46) S1)
(declare-fun f73 (S47 S34) S45)
(declare-fun f74 () S47)
(declare-fun f75 (S48 S33) S46)
(declare-fun f76 () S48)
(declare-fun f77 (S49 S50) S1)
(declare-fun f78 (S51 S33) S49)
(declare-fun f79 () S51)
(declare-fun f80 (S52 S37) S50)
(declare-fun f81 () S52)
(declare-fun f82 (S50 S33) S1)
(declare-fun f83 () S50)
(declare-fun f84 (S53 S37) S1)
(declare-fun f85 () S53)
(declare-fun f86 () S14)
(declare-fun f87 (S54 S7) S1)
(declare-fun f88 () S54)
(declare-fun f89 () S23)
(declare-fun f90 (S55 S43) S42)
(declare-fun f91 () S55)
(declare-fun f92 (S56 S2) S32)
(declare-fun f93 () S56)
(declare-fun f94 (S57 S46) S46)
(declare-fun f95 (S58 S34) S57)
(declare-fun f96 () S58)
(declare-fun f97 (S59 S50) S50)
(declare-fun f98 (S60 S33) S59)
(declare-fun f99 () S60)
(declare-fun f100 (S61 S2) S43)
(declare-fun f101 () S61)
(declare-fun f102 () S41)
(declare-fun f103 () S31)
(declare-fun f104 () S36)
(declare-fun f105 () S39)
(declare-fun f106 (S7) S62)
(declare-fun f107 () S62)
(declare-fun f108 () S61)
(declare-fun f109 () S26)
(declare-fun f110 () S3)
(declare-fun f111 () S50)
(declare-fun f112 () S46)
(assert (not (= f1 f2)))
(assert (forall ((?v0 S2)) (= (= (f3 f4 ?v0) f1) (and (= (f5 (f6 f7 ?v0) (f8 f9 f10)) f1) (= (f3 (f11 (f12 (f13 f14 f15) f16) f16) ?v0) f1)))))
(assert (forall ((?v0 S13)) (= (f17 f15 ?v0) (f18 (f19 f20 f2) f21))))
(assert (forall ((?v0 S13) (?v1 S17)) (= (= (f22 (f17 f21 ?v0) ?v1) f1) (= (f23 (f24 f25 ?v0) f26) f1))))
(assert (forall ((?v0 S2) (?v1 S13) (?v2 S17)) (= (= (f22 (f17 (f27 f28 ?v0) ?v1) ?v2) f1) (= (f29 (f30 f31 (f32 f33 ?v0)) (f34 (f35 f36 f37) (f34 (f35 f36 (f38 f39 f40)) f41))) f1))))
(assert (forall ((?v0 S2) (?v1 S13) (?v2 S13) (?v3 S17)) (= (= (f22 (f17 (f42 (f43 f44 ?v0) ?v1) ?v2) ?v3) f1) (= (f32 f33 ?v0) f37))))
(assert (forall ((?v0 S13) (?v1 S13) (?v2 S17)) (= (= (f22 (f17 (f42 f16 ?v0) ?v1) ?v2) f1) false)))
(assert (not (= f45 f1)))
(assert (forall ((?v0 S13) (?v1 S17)) (=> (= f46 (f47 (f48 f49 ?v0) (f50 (f51 f52 (f38 f39 f40)) ?v1))) (= f45 f1))))
(assert (= (f5 (f6 f7 f46) (f53 f54 f4)) f1))
(assert (forall ((?v0 S2)) (let ((?v_0 (f43 f44 ?v0))) (=> (= (f5 (f6 f7 ?v0) (f8 f9 f10)) f1) (= (f3 (f11 (f12 (f13 f14 (f27 f28 ?v0)) ?v_0) ?v_0) ?v0) f1)))))
(assert (forall ((?v0 S13) (?v1 S17) (?v2 S13) (?v3 S17)) (= (= (f47 (f48 f49 ?v0) ?v1) (f47 (f48 f49 ?v2) ?v3)) (and (= ?v0 ?v2) (= ?v1 ?v3)))))
(assert (= (= f40 f40) true))
(assert (forall ((?v0 S13)) (= (f38 f39 ?v0) ?v0)))
(assert (forall ((?v0 S33) (?v1 S34)) (not (= ?v0 (f55 (f56 f57 ?v1) ?v0)))))
(assert (forall ((?v0 S37) (?v1 S33)) (not (= ?v0 (f58 (f59 f60 ?v1) ?v0)))))
(assert (forall ((?v0 S17) (?v1 S13)) (not (= ?v0 (f50 (f51 f52 ?v1) ?v0)))))
(assert (forall ((?v0 S7) (?v1 S2)) (not (= ?v0 (f61 (f62 f63 ?v1) ?v0)))))
(assert (forall ((?v0 S34) (?v1 S33)) (not (= (f55 (f56 f57 ?v0) ?v1) ?v1))))
(assert (forall ((?v0 S33) (?v1 S37)) (not (= (f58 (f59 f60 ?v0) ?v1) ?v1))))
(assert (forall ((?v0 S13) (?v1 S17)) (not (= (f50 (f51 f52 ?v0) ?v1) ?v1))))
(assert (forall ((?v0 S2) (?v1 S7)) (not (= (f61 (f62 f63 ?v0) ?v1) ?v1))))
(assert (forall ((?v0 S34) (?v1 S33) (?v2 S34) (?v3 S33)) (= (= (f55 (f56 f57 ?v0) ?v1) (f55 (f56 f57 ?v2) ?v3)) (and (= ?v0 ?v2) (= ?v1 ?v3)))))
(assert (forall ((?v0 S33) (?v1 S37) (?v2 S33) (?v3 S37)) (= (= (f58 (f59 f60 ?v0) ?v1) (f58 (f59 f60 ?v2) ?v3)) (and (= ?v0 ?v2) (= ?v1 ?v3)))))
(assert (forall ((?v0 S13) (?v1 S17) (?v2 S13) (?v3 S17)) (= (= (f50 (f51 f52 ?v0) ?v1) (f50 (f51 f52 ?v2) ?v3)) (and (= ?v0 ?v2) (= ?v1 ?v3)))))
(assert (forall ((?v0 S2) (?v1 S7) (?v2 S2) (?v3 S7)) (= (= (f61 (f62 f63 ?v0) ?v1) (f61 (f62 f63 ?v2) ?v3)) (and (= ?v0 ?v2) (= ?v1 ?v3)))))
(assert (forall ((?v0 S13) (?v1 S13)) (let ((?v_0 (f38 f39 ?v0))) (= (= ?v_0 ?v1) (= ?v1 ?v_0)))))
(assert (forall ((?v0 S13) (?v1 S13)) (= (= (f38 f39 ?v0) (f38 f39 ?v1)) (= ?v0 ?v1))))
(assert (forall ((?v0 S12) (?v1 S9) (?v2 S9) (?v3 S13) (?v4 S17)) (= (= (f3 (f11 (f12 (f13 f14 ?v0) ?v1) ?v2) (f47 (f48 f49 ?v3) ?v4)) f1) (= (f22 (f17 ?v0 ?v3) ?v4) f1))))
(assert (forall ((?v0 S1) (?v1 S12) (?v2 S13) (?v3 S17)) (= (= (f22 (f18 (f19 f20 ?v0) ?v1) (f50 (f51 f52 ?v2) ?v3)) f1) (= (f22 (f17 ?v1 ?v2) ?v3) f1))))
(assert (let ((?v_0 (f38 f39 f40))) (= (f38 f64 ?v_0) ?v_0)))
(assert (not (= (f23 f65 (f38 f39 f40)) f1)))
(assert (forall ((?v0 S13) (?v1 S13)) (= (= (f38 f64 ?v0) (f38 f64 ?v1)) (= ?v0 ?v1))))
(assert (forall ((?v0 S13)) (= (f38 f39 ?v0) (f38 f64 ?v0))))
(assert (forall ((?v0 S13)) (= (f38 f39 ?v0) (f38 f64 ?v0))))
(assert (forall ((?v0 S13)) (let ((?v_0 (f38 f39 ?v0))) (= (f38 f64 ?v_0) ?v_0))))
(assert (= (f66 f67 f68) f1))
(assert (= (f23 f65 f26) f1))
(assert (forall ((?v0 S43)) (= (= (f66 f67 ?v0) f1) (= ?v0 f68))))
(assert (forall ((?v0 S13)) (= (= (f23 f65 ?v0) f1) (= ?v0 f26))))
(assert (not (= (f23 f65 f37) f1)))
(assert (not (= (f66 f67 f69) f1)))
(assert (= (= (f23 (f24 f25 f40) f40) f1) false))
(assert (forall ((?v0 S13) (?v1 S13)) (= (= (f23 (f24 f25 (f38 f39 ?v0)) (f38 f39 ?v1)) f1) (= (f23 (f24 f25 ?v0) ?v1) f1))))
(assert (forall ((?v0 S2) (?v1 S2) (?v2 S7)) (let ((?v_0 (f6 f7 ?v0))) (=> (= (f5 ?v_0 (f8 f9 (f61 (f62 f63 ?v1) ?v2))) f1) (or (= ?v0 ?v1) (= (f5 ?v_0 (f8 f9 ?v2)) f1))))))
(assert (forall ((?v0 S13) (?v1 S13) (?v2 S17)) (let ((?v_0 (f30 f31 ?v0))) (=> (= (f29 ?v_0 (f70 f71 (f50 (f51 f52 ?v1) ?v2))) f1) (or (= ?v0 ?v1) (= (f29 ?v_0 (f70 f71 ?v2)) f1))))))
(assert (forall ((?v0 S34) (?v1 S34) (?v2 S33)) (let ((?v_0 (f73 f74 ?v0))) (=> (= (f72 ?v_0 (f75 f76 (f55 (f56 f57 ?v1) ?v2))) f1) (or (= ?v0 ?v1) (= (f72 ?v_0 (f75 f76 ?v2)) f1))))))
(assert (forall ((?v0 S33) (?v1 S33) (?v2 S37)) (let ((?v_0 (f78 f79 ?v0))) (=> (= (f77 ?v_0 (f80 f81 (f58 (f59 f60 ?v1) ?v2))) f1) (or (= ?v0 ?v1) (= (f77 ?v_0 (f80 f81 ?v2)) f1))))))
(assert (forall ((?v0 S34) (?v1 S33)) (= (= (f82 f83 (f55 (f56 f57 ?v0) ?v1)) f1) false)))
(assert (forall ((?v0 S33) (?v1 S37)) (= (= (f84 f85 (f58 (f59 f60 ?v0) ?v1)) f1) false)))
(assert (forall ((?v0 S13) (?v1 S17)) (= (= (f22 f86 (f50 (f51 f52 ?v0) ?v1)) f1) false)))
(assert (forall ((?v0 S2) (?v1 S7)) (= (= (f87 f88 (f61 (f62 f63 ?v0) ?v1)) f1) false)))
(assert (= (f38 f64 f26) f26))
(assert (forall ((?v0 S13)) (= (= f26 (f38 f64 ?v0)) (= ?v0 f26))))
(assert (= (f23 (f24 f25 f26) f37) f1))
(assert (not (= f26 f37)))
(assert (forall ((?v0 S13) (?v1 S13)) (or (= (f23 (f24 f25 ?v0) ?v1) f1) (or (= ?v0 ?v1) (= (f23 (f24 f25 ?v1) ?v0) f1)))))
(assert (forall ((?v0 S13)) (= (= (f23 (f24 f25 (f38 f64 ?v0)) f26) f1) (= (f23 (f24 f25 ?v0) f26) f1))))
(assert (forall ((?v0 S13)) (let ((?v_0 (f24 f25 f26))) (= (= (f23 ?v_0 (f38 f64 ?v0)) f1) (= (f23 ?v_0 ?v0) f1)))))
(assert (forall ((?v0 S13) (?v1 S13)) (= (= (f23 (f24 f25 (f38 f39 ?v0)) (f38 f39 ?v1)) f1) (= (f23 (f24 f25 ?v0) ?v1) f1))))
(assert (= (= (f23 (f24 f25 f40) f26) f1) true))
(assert (forall ((?v0 S13) (?v1 S13)) (= (= (f23 (f24 f25 (f38 f64 ?v0)) (f38 f64 ?v1)) f1) (= (f23 (f24 f25 ?v0) ?v1) f1))))
(assert (= (f38 f64 f37) f37))
(assert (forall ((?v0 S13)) (= (= (f38 f64 ?v0) f26) (= ?v0 f26))))
(assert (forall ((?v0 S2)) (=> (= (f5 (f6 f7 ?v0) (f8 f9 f10)) f1) (not (= (f32 f89 ?v0) f26)))))
(assert (= (f23 (f24 f25 f26) f37) f1))
(assert (= (f66 (f90 f91 f68) f69) f1))
(assert (not (= (f23 (f24 f25 f37) f26) f1)))
(assert (not (= (f66 (f90 f91 f69) f68) f1)))
(assert (forall ((?v0 S2) (?v1 S7)) (= (f8 f9 (f61 (f62 f63 ?v0) ?v1)) (f53 (f92 f93 ?v0) (f8 f9 ?v1)))))
(assert (forall ((?v0 S13) (?v1 S17)) (= (f70 f71 (f50 (f51 f52 ?v0) ?v1)) (f34 (f35 f36 ?v0) (f70 f71 ?v1)))))
(assert (forall ((?v0 S34) (?v1 S33)) (= (f75 f76 (f55 (f56 f57 ?v0) ?v1)) (f94 (f95 f96 ?v0) (f75 f76 ?v1)))))
(assert (forall ((?v0 S33) (?v1 S37)) (= (f80 f81 (f58 (f59 f60 ?v0) ?v1)) (f97 (f98 f99 ?v0) (f80 f81 ?v1)))))
(assert (not (= f26 f37)))
(assert (not (= f68 f69)))
(assert (not (= f37 f26)))
(assert (not (= f69 f68)))
(assert (forall ((?v0 S13) (?v1 S17)) (= (f100 f101 (f47 (f48 f49 ?v0) ?v1)) f68)))
(assert (forall ((?v0 S2) (?v1 S7)) (= (f61 (f62 f102 ?v0) ?v1) (ite (= (f5 (f6 f7 ?v0) (f8 f9 ?v1)) f1) ?v1 (f61 (f62 f63 ?v0) ?v1)))))
(assert (forall ((?v0 S13) (?v1 S17)) (= (f50 (f51 f103 ?v0) ?v1) (ite (= (f29 (f30 f31 ?v0) (f70 f71 ?v1)) f1) ?v1 (f50 (f51 f52 ?v0) ?v1)))))
(assert (forall ((?v0 S34) (?v1 S33)) (= (f55 (f56 f104 ?v0) ?v1) (ite (= (f72 (f73 f74 ?v0) (f75 f76 ?v1)) f1) ?v1 (f55 (f56 f57 ?v0) ?v1)))))
(assert (forall ((?v0 S33) (?v1 S37)) (= (f58 (f59 f105 ?v0) ?v1) (ite (= (f77 (f78 f79 ?v0) (f80 f81 ?v1)) f1) ?v1 (f58 (f59 f60 ?v0) ?v1)))))
(assert (forall ((?v0 S2) (?v1 S7)) (=> (not (= (f5 (f6 f7 ?v0) (f8 f9 ?v1)) f1)) (= (f61 (f62 f102 ?v0) ?v1) (f61 (f62 f63 ?v0) ?v1)))))
(assert (forall ((?v0 S13) (?v1 S17)) (=> (not (= (f29 (f30 f31 ?v0) (f70 f71 ?v1)) f1)) (= (f50 (f51 f103 ?v0) ?v1) (f50 (f51 f52 ?v0) ?v1)))))
(assert (forall ((?v0 S34) (?v1 S33)) (=> (not (= (f72 (f73 f74 ?v0) (f75 f76 ?v1)) f1)) (= (f55 (f56 f104 ?v0) ?v1) (f55 (f56 f57 ?v0) ?v1)))))
(assert (forall ((?v0 S33) (?v1 S37)) (=> (not (= (f77 (f78 f79 ?v0) (f80 f81 ?v1)) f1)) (= (f58 (f59 f105 ?v0) ?v1) (f58 (f59 f60 ?v0) ?v1)))))
(assert (forall ((?v0 S13) (?v1 S17)) (= (f32 f89 (f47 (f48 f49 ?v0) ?v1)) f37)))
(assert (forall ((?v0 S2) (?v1 S7)) (= (f8 f9 (f61 (f62 f102 ?v0) ?v1)) (f53 (f92 f93 ?v0) (f8 f9 ?v1)))))
(assert (forall ((?v0 S13) (?v1 S17)) (= (f70 f71 (f50 (f51 f103 ?v0) ?v1)) (f34 (f35 f36 ?v0) (f70 f71 ?v1)))))
(assert (forall ((?v0 S33) (?v1 S37)) (= (f80 f81 (f58 (f59 f105 ?v0) ?v1)) (f97 (f98 f99 ?v0) (f80 f81 ?v1)))))
(assert (forall ((?v0 S34) (?v1 S33)) (= (f75 f76 (f55 (f56 f104 ?v0) ?v1)) (f94 (f95 f96 ?v0) (f75 f76 ?v1)))))
(assert (forall ((?v0 S2) (?v1 S7)) (=> (= (f5 (f6 f7 ?v0) (f8 f9 ?v1)) f1) (= (f61 (f62 f102 ?v0) ?v1) ?v1))))
(assert (forall ((?v0 S13) (?v1 S17)) (=> (= (f29 (f30 f31 ?v0) (f70 f71 ?v1)) f1) (= (f50 (f51 f103 ?v0) ?v1) ?v1))))
(assert (forall ((?v0 S33) (?v1 S37)) (=> (= (f77 (f78 f79 ?v0) (f80 f81 ?v1)) f1) (= (f58 (f59 f105 ?v0) ?v1) ?v1))))
(assert (forall ((?v0 S34) (?v1 S33)) (=> (= (f72 (f73 f74 ?v0) (f75 f76 ?v1)) f1) (= (f55 (f56 f104 ?v0) ?v1) ?v1))))
(assert (forall ((?v0 S13) (?v1 S13)) (=> (not (= ?v0 ?v1)) (=> (=> (= (f23 (f24 f25 ?v0) ?v1) f1) false) (=> (=> (= (f23 (f24 f25 ?v1) ?v0) f1) false) false)))))
(assert (= (f106 f10) f107))
(assert (forall ((?v0 S13) (?v1 S13) (?v2 S18)) (let ((?v_0 (f30 f31 ?v0))) (=> (= (f29 ?v_0 (f34 (f35 f36 ?v1) ?v2)) f1) (=> (=> (= ?v0 ?v1) false) (=> (=> (= (f29 ?v_0 ?v2) f1) false) false))))))
(assert (forall ((?v0 S2) (?v1 S2) (?v2 S3)) (let ((?v_0 (f6 f7 ?v0))) (=> (= (f5 ?v_0 (f53 (f92 f93 ?v1) ?v2)) f1) (=> (=> (= ?v0 ?v1) false) (=> (=> (= (f5 ?v_0 ?v2) f1) false) false))))))
(assert (forall ((?v0 S33) (?v1 S33) (?v2 S50)) (let ((?v_0 (f78 f79 ?v0))) (=> (= (f77 ?v_0 (f97 (f98 f99 ?v1) ?v2)) f1) (=> (=> (= ?v0 ?v1) false) (=> (=> (= (f77 ?v_0 ?v2) f1) false) false))))))
(assert (forall ((?v0 S34) (?v1 S34) (?v2 S46)) (let ((?v_0 (f73 f74 ?v0))) (=> (= (f72 ?v_0 (f94 (f95 f96 ?v1) ?v2)) f1) (=> (=> (= ?v0 ?v1) false) (=> (=> (= (f72 ?v_0 ?v2) f1) false) false))))))
(assert (forall ((?v0 S13) (?v1 S18) (?v2 S13)) (let ((?v_0 (f30 f31 ?v0))) (=> (=> (not (= (f29 ?v_0 ?v1) f1)) (= ?v0 ?v2)) (= (f29 ?v_0 (f34 (f35 f36 ?v2) ?v1)) f1)))))
(assert (forall ((?v0 S2) (?v1 S3) (?v2 S2)) (let ((?v_0 (f6 f7 ?v0))) (=> (=> (not (= (f5 ?v_0 ?v1) f1)) (= ?v0 ?v2)) (= (f5 ?v_0 (f53 (f92 f93 ?v2) ?v1)) f1)))))
(assert (forall ((?v0 S33) (?v1 S50) (?v2 S33)) (let ((?v_0 (f78 f79 ?v0))) (=> (=> (not (= (f77 ?v_0 ?v1) f1)) (= ?v0 ?v2)) (= (f77 ?v_0 (f97 (f98 f99 ?v2) ?v1)) f1)))))
(assert (forall ((?v0 S34) (?v1 S46) (?v2 S34)) (let ((?v_0 (f73 f74 ?v0))) (=> (=> (not (= (f72 ?v_0 ?v1) f1)) (= ?v0 ?v2)) (= (f72 ?v_0 (f94 (f95 f96 ?v2) ?v1)) f1)))))
(assert (forall ((?v0 S43)) (=> (= (f66 (f90 f91 ?v0) f68) f1) false)))
(assert (forall ((?v0 S2)) (let ((?v_0 (f43 f44 ?v0))) (=> (= (f5 (f6 f7 ?v0) (f8 f9 f10)) f1) (= (f3 (f11 (f12 (f13 f14 (f27 f28 ?v0)) ?v_0) ?v_0) ?v0) f1)))))
(assert (forall ((?v0 S13) (?v1 S17)) (= (f100 f108 (f47 (f48 f49 ?v0) ?v1)) f68)))
(assert (forall ((?v0 S13)) (= (= (f38 f109 ?v0) f37) (= (f23 (f24 f25 f26) ?v0) f1))))
(assert (forall ((?v0 S13)) (=> (= (f23 (f24 f25 f26) ?v0) f1) (= (f38 f109 ?v0) f37))))
(assert (forall ((?v0 S13)) (=> (= (f29 (f30 f31 ?v0) f41) f1) false)))
(assert (forall ((?v0 S2)) (=> (= (f5 (f6 f7 ?v0) f110) f1) false)))
(assert (forall ((?v0 S33)) (=> (= (f77 (f78 f79 ?v0) f111) f1) false)))
(assert (forall ((?v0 S34)) (=> (= (f72 (f73 f74 ?v0) f112) f1) false)))
(assert (forall ((?v0 S43) (?v1 S43) (?v2 S55)) (let ((?v_0 (= (f66 (f90 ?v2 ?v1) ?v0) f1))) (=> (=> (= (f66 (f90 f91 ?v0) ?v1) f1) ?v_0) (=> (=> (= ?v0 ?v1) ?v_0) (=> (=> (= (f66 (f90 f91 ?v1) ?v0) f1) ?v_0) ?v_0))))))
(assert (forall ((?v0 S43) (?v1 S43)) (=> (= (f66 (f90 f91 ?v0) ?v1) f1) (not (= ?v0 ?v1)))))
(assert (forall ((?v0 S43) (?v1 S43)) (=> (= (f66 (f90 f91 ?v0) ?v1) f1) (not (= ?v1 ?v0)))))
(assert (forall ((?v0 S43)) (=> (= (f66 (f90 f91 ?v0) ?v0) f1) false)))
(check-sat)
(exit)
